# Objective value = 2703.33
I_0_0 510
I_0_1 521
I_0_2 6.3400000000000034e+02
I_0_3 8.2700000000000352e+02
I_1_0 130
I_1_1 130
I_1_2 65
I_1_3 0
I_2_0 70
I_2_1 70
I_2_2 3.4999999999999858e+01
I_2_3 -1.3128527208118965e-12
I_3_0 58
I_3_1 58
I_3_2 58
I_3_3 0
I_4_0 48
I_4_1 48
I_4_2 2.3999999999999812e+01
I_4_3 -2.4917595101581483e-12
I_5_0 11
I_5_1 0
I_5_2 1.1000000000000053e+01
I_5_3 0
q_1_0_0 0
q_1_0_1 0
q_1_0_2 0
q_1_1_0 65
q_1_1_1 0
q_1_1_2 0
q_1_2_0 0
q_1_2_1 0
q_1_2_2 0
q_1_3_0 0
q_1_3_1 0
q_1_3_2 0
q_2_0_0 35
q_2_0_1 0
q_2_0_2 -9.0024186569958628e-13
q_2_1_0 0
q_2_1_1 -1.8677634052828044e-12
q_2_1_2 0
q_2_2_0 0
q_2_2_1 0
q_2_2_2 0
q_2_3_0 0
q_2_3_1 0
q_2_3_2 -1.1223469121626906e-12
q_3_0_0 0
q_3_0_1 0
q_3_0_2 0
q_3_1_0 0
q_3_1_1 58
q_3_1_2 0
q_3_2_0 58
q_3_2_1 0
q_3_2_2 0
q_3_3_0 0
q_3_3_1 0
q_3_3_2 0
q_4_0_0 24
q_4_0_1 -1.2779190214094159e-12
q_4_0_2 0
q_4_1_0 0
q_4_1_1 0
q_4_1_2 0
q_4_2_0 0
q_4_2_1 0
q_4_2_2 -2.3034656851817217e-12
q_4_3_0 0
q_4_3_1 0
q_4_3_2 0
q_5_0_0 0
q_5_0_1 2.2000000000000107e+01
q_5_0_2 0
q_5_1_0 0
q_5_1_1 0
q_5_1_2 0
q_5_2_0 0
q_5_2_1 0
q_5_2_2 0
q_5_3_0 0
q_5_3_1 0
q_5_3_2 0
y_0_0_0 1
y_0_0_1 1
y_0_0_2 0
y_0_1_0 1
y_0_1_1 1
y_0_1_2 0
y_0_2_0 1
y_0_2_1 0
y_0_2_2 0
y_0_3_0 0
y_0_3_1 0
y_0_3_2 0
y_1_0_0 0
y_1_0_1 0
y_1_0_2 0
y_1_1_0 1
y_1_1_1 0
y_1_1_2 0
y_1_2_0 0
y_1_2_1 0
y_1_2_2 0
y_1_3_0 0
y_1_3_1 0
y_1_3_2 0
y_2_0_0 1
y_2_0_1 0
y_2_0_2 0
y_2_1_0 0
y_2_1_1 0
y_2_1_2 0
y_2_2_0 0
y_2_2_1 0
y_2_2_2 0
y_2_3_0 0
y_2_3_1 0
y_2_3_2 0
y_3_0_0 0
y_3_0_1 0
y_3_0_2 0
y_3_1_0 0
y_3_1_1 1
y_3_1_2 0
y_3_2_0 1
y_3_2_1 0
y_3_2_2 0
y_3_3_0 0
y_3_3_1 0
y_3_3_2 0
y_4_0_0 1
y_4_0_1 0
y_4_0_2 0
y_4_1_0 0
y_4_1_1 0
y_4_1_2 0
y_4_2_0 0
y_4_2_1 0
y_4_2_2 0
y_4_3_0 0
y_4_3_1 0
y_4_3_2 0
y_5_0_0 0
y_5_0_1 1
y_5_0_2 0
y_5_1_0 0
y_5_1_1 0
y_5_1_2 0
y_5_2_0 0
y_5_2_1 0
y_5_2_2 0
y_5_3_0 0
y_5_3_1 0
y_5_3_2 0
x_0_1_0_0 0
x_0_1_0_1 0
x_0_1_0_2 0
x_0_1_1_0 2
x_0_1_1_1 0
x_0_1_1_2 0
x_0_1_2_0 0
x_0_1_2_1 0
x_0_1_2_2 0
x_0_1_3_0 0
x_0_1_3_1 0
x_0_1_3_2 0
x_0_2_0_0 1
x_0_2_0_1 0
x_0_2_0_2 0
x_0_2_1_0 0
x_0_2_1_1 0
x_0_2_1_2 0
x_0_2_2_0 0
x_0_2_2_1 0
x_0_2_2_2 0
x_0_2_3_0 0
x_0_2_3_1 0
x_0_2_3_2 0
x_0_3_0_0 0
x_0_3_0_1 0
x_0_3_0_2 0
x_0_3_1_0 0
x_0_3_1_1 2
x_0_3_1_2 0
x_0_3_2_0 2
x_0_3_2_1 0
x_0_3_2_2 0
x_0_3_3_0 0
x_0_3_3_1 0
x_0_3_3_2 0
x_0_4_0_0 1
x_0_4_0_1 0
x_0_4_0_2 0
x_0_4_1_0 0
x_0_4_1_1 0
x_0_4_1_2 0
x_0_4_2_0 0
x_0_4_2_1 0
x_0_4_2_2 0
x_0_4_3_0 0
x_0_4_3_1 0
x_0_4_3_2 0
x_0_5_0_0 0
x_0_5_0_1 2
x_0_5_0_2 0
x_0_5_1_0 0
x_0_5_1_1 0
x_0_5_1_2 0
x_0_5_2_0 0
x_0_5_2_1 0
x_0_5_2_2 0
x_0_5_3_0 0
x_0_5_3_1 0
x_0_5_3_2 0
x_1_2_0_0 0
x_1_2_0_1 0
x_1_2_0_2 0
x_1_2_1_0 0
x_1_2_1_1 0
x_1_2_1_2 0
x_1_2_2_0 0
x_1_2_2_1 0
x_1_2_2_2 0
x_1_2_3_0 0
x_1_2_3_1 0
x_1_2_3_2 0
x_1_3_0_0 0
x_1_3_0_1 0
x_1_3_0_2 0
x_1_3_1_0 0
x_1_3_1_1 0
x_1_3_1_2 0
x_1_3_2_0 0
x_1_3_2_1 0
x_1_3_2_2 0
x_1_3_3_0 0
x_1_3_3_1 0
x_1_3_3_2 0
x_1_4_0_0 0
x_1_4_0_1 0
x_1_4_0_2 0
x_1_4_1_0 0
x_1_4_1_1 0
x_1_4_1_2 0
x_1_4_2_0 0
x_1_4_2_1 0
x_1_4_2_2 0
x_1_4_3_0 0
x_1_4_3_1 0
x_1_4_3_2 0
x_1_5_0_0 0
x_1_5_0_1 0
x_1_5_0_2 0
x_1_5_1_0 0
x_1_5_1_1 0
x_1_5_1_2 0
x_1_5_2_0 0
x_1_5_2_1 0
x_1_5_2_2 0
x_1_5_3_0 0
x_1_5_3_1 0
x_1_5_3_2 0
x_2_3_0_0 0
x_2_3_0_1 0
x_2_3_0_2 0
x_2_3_1_0 0
x_2_3_1_1 0
x_2_3_1_2 0
x_2_3_2_0 0
x_2_3_2_1 0
x_2_3_2_2 0
x_2_3_3_0 0
x_2_3_3_1 0
x_2_3_3_2 0
x_2_4_0_0 1
x_2_4_0_1 0
x_2_4_0_2 0
x_2_4_1_0 0
x_2_4_1_1 0
x_2_4_1_2 0
x_2_4_2_0 0
x_2_4_2_1 0
x_2_4_2_2 0
x_2_4_3_0 0
x_2_4_3_1 0
x_2_4_3_2 0
x_2_5_0_0 0
x_2_5_0_1 0
x_2_5_0_2 0
x_2_5_1_0 0
x_2_5_1_1 0
x_2_5_1_2 0
x_2_5_2_0 0
x_2_5_2_1 0
x_2_5_2_2 0
x_2_5_3_0 0
x_2_5_3_1 0
x_2_5_3_2 0
x_3_4_0_0 0
x_3_4_0_1 0
x_3_4_0_2 0
x_3_4_1_0 0
x_3_4_1_1 0
x_3_4_1_2 0
x_3_4_2_0 0
x_3_4_2_1 0
x_3_4_2_2 0
x_3_4_3_0 0
x_3_4_3_1 0
x_3_4_3_2 0
x_3_5_0_0 0
x_3_5_0_1 0
x_3_5_0_2 0
x_3_5_1_0 0
x_3_5_1_1 0
x_3_5_1_2 0
x_3_5_2_0 0
x_3_5_2_1 0
x_3_5_2_2 0
x_3_5_3_0 0
x_3_5_3_1 0
x_3_5_3_2 0
x_4_5_0_0 0
x_4_5_0_1 0
x_4_5_0_2 0
x_4_5_1_0 0
x_4_5_1_1 0
x_4_5_1_2 0
x_4_5_2_0 0
x_4_5_2_1 0
x_4_5_2_2 0
x_4_5_3_0 0
x_4_5_3_1 0
x_4_5_3_2 0
